c turning on binary mode checking
c parsing input formula with 202048 variables and 780985 clauses
c finished parsing, read 1898441 bytes from proof file
c detected empty clause; start verification via backward checking
c 1885 of 780985 clauses in core                            
c 633 of 75758 lemmas in core using 19257 resolution steps
c 0 RAT lemmas in core; 120 redundant literals in core lemmas
s VERIFIED
c verification time: 0.897 seconds
